NAME: random-67-5527
TYPE: TSP
COMMENT: size=67 seed=5527
DIMENSION: 136
EDGE_WEIGHT_TYPE: EUC_2D
NODE_COORD_SECTION
+0 289 854
-0 289 854
+1 342 474
-1 468 162
+2 583 241
-2 887 65
+3 260 557
-3 284 312
+4 606 9
-4 687 781
+5 52 698
-5 658 865
+6 748 627
-6 497 248
+7 579 420
-7 62 138
+8 674 195
-8 874 933
+9 21 63
-9 514 374
+10 454 934
-10 993 611
+11 395 168
-11 479 774
+12 209 575
-12 835 551
+13 958 695
-13 741 990
+14 212 525
-14 135 783
+15 494 146
-15 432 987
+16 36 221
-16 789 869
+17 170 362
-17 797 406
+18 88 501
-18 86 776
+19 801 900
-19 399 931
+20 580 814
-20 194 192
+21 153 852
-21 692 85
+22 649 629
-22 740 450
+23 955 922
-23 555 557
+24 113 402
-24 90 23
+25 84 577
-25 228 61
+26 896 793
-26 481 465
+27 347 923
-27 783 392
+28 560 44
-28 554 555
+29 533 48
-29 486 284
+30 226 40
-30 686 233
+31 409 955
-31 150 35
+32 809 489
-32 840 214
+33 204 49
-33 805 793
+34 251 919
-34 102 396
+35 63 777
-35 695 793
+36 834 757
-36 679 899
+37 274 262
-37 336 429
+38 753 825
-38 950 902
+39 403 967
-39 490 16
+40 78 111
-40 754 209
+41 494 537
-41 961 540
+42 190 669
-42 27 220
+43 978 214
-43 164 637
+44 344 131
-44 105 217
+45 538 506
-45 607 650
+46 322 612
-46 260 514
+47 167 561
-47 100 124
+48 599 59
-48 856 980
+49 208 238
-49 917 78
+50 459 458
-50 701 767
+51 196 952
-51 667 970
+52 126 883
-52 442 201
+53 271 319
-53 686 312
+54 841 144
-54 994 440
+55 186 489
-55 45 32
+56 88 159
-56 168 894
+57 18 925
-57 649 527
+58 656 25
-58 502 7
+59 912 50
-59 696 195
+60 176 575
-60 737 336
+61 855 211
-61 518 260
+62 75 755
-62 847 638
+63 538 126
-63 769 147
+64 497 870
-64 139 944
+65 867 165
-65 9 63
+66 949 608
-66 351 560
+67 543 812
-67 545 336
PRECEDENCE_SECTION
+0 -0
+1 -1
+2 -2
+3 -3
+4 -4
+5 -5
+6 -6
+7 -7
+8 -8
+9 -9
+10 -10
+11 -11
+12 -12
+13 -13
+14 -14
+15 -15
+16 -16
+17 -17
+18 -18
+19 -19
+20 -20
+21 -21
+22 -22
+23 -23
+24 -24
+25 -25
+26 -26
+27 -27
+28 -28
+29 -29
+30 -30
+31 -31
+32 -32
+33 -33
+34 -34
+35 -35
+36 -36
+37 -37
+38 -38
+39 -39
+40 -40
+41 -41
+42 -42
+43 -43
+44 -44
+45 -45
+46 -46
+47 -47
+48 -48
+49 -49
+50 -50
+51 -51
+52 -52
+53 -53
+54 -54
+55 -55
+56 -56
+57 -57
+58 -58
+59 -59
+60 -60
+61 -61
+62 -62
+63 -63
+64 -64
+65 -65
+66 -66
+67 -67
EOF
